c FILE: i080-015

c SOURCE: From steinlib

c DESCRIPTION: Steinlib instance with 80 nodes and 350 edges.

p edge 80 350
e 1 2
e 1 30
e 1 32
e 1 38
e 1 52
e 1 57
e 1 58
e 2 3
e 2 5
e 2 20
e 2 29
e 2 36
e 2 43
e 2 44
e 2 48
e 2 50
e 2 65
e 2 69
e 2 71
e 2 79
e 3 6
e 3 7
e 3 10
e 3 15
e 3 16
e 3 32
e 3 38
e 3 45
e 3 52
e 3 74
e 4 9
e 4 14
e 4 16
e 4 30
e 4 36
e 4 37
e 4 41
e 4 56
e 5 16
e 5 39
e 5 49
e 5 60
e 5 64
e 5 66
e 5 71
e 6 27
e 6 32
e 6 33
e 6 35
e 6 68
e 7 8
e 7 9
e 7 10
e 7 13
e 7 23
e 7 31
e 7 41
e 7 52
e 7 55
e 7 60
e 7 69
e 8 14
e 8 19
e 8 23
e 8 30
e 8 41
e 8 63
e 8 68
e 8 72
e 8 73
e 8 74
e 9 11
e 9 17
e 9 20
e 9 23
e 9 29
e 9 33
e 9 38
e 9 49
e 9 63
e 9 69
e 9 71
e 9 77
e 10 19
e 10 31
e 10 35
e 10 37
e 10 39
e 10 43
e 10 47
e 10 80
e 11 13
e 11 29
e 11 36
e 11 65
e 11 76
e 12 14
e 12 16
e 12 24
e 12 35
e 12 38
e 12 54
e 12 55
e 12 62
e 12 65
e 12 78
e 13 22
e 13 39
e 13 62
e 13 64
e 14 22
e 14 25
e 14 28
e 14 40
e 14 49
e 14 52
e 14 56
e 14 69
e 14 72
e 15 20
e 15 22
e 15 30
e 15 44
e 15 47
e 15 56
e 15 60
e 15 61
e 16 21
e 16 31
e 16 42
e 16 48
e 16 53
e 17 37
e 17 44
e 17 49
e 17 79
e 18 21
e 18 38
e 18 40
e 18 68
e 18 74
e 18 80
e 19 21
e 19 32
e 19 36
e 19 47
e 19 59
e 20 28
e 20 39
e 20 41
e 20 50
e 20 54
e 20 62
e 20 65
e 20 68
e 21 28
e 21 34
e 21 42
e 21 58
e 21 78
e 22 27
e 22 44
e 22 49
e 22 63
e 22 72
e 22 74
e 22 78
e 23 27
e 23 42
e 23 45
e 23 52
e 23 68
e 23 76
e 24 26
e 24 32
e 24 43
e 24 46
e 24 47
e 24 72
e 25 28
e 25 32
e 25 43
e 25 70
e 26 27
e 26 33
e 26 41
e 26 49
e 26 53
e 26 64
e 26 65
e 26 67
e 26 79
e 27 35
e 27 51
e 27 52
e 27 54
e 27 55
e 28 33
e 28 42
e 28 53
e 28 59
e 28 60
e 28 70
e 28 74
e 29 46
e 29 57
e 29 67
e 29 79
e 30 61
e 31 44
e 31 46
e 31 53
e 31 57
e 31 63
e 31 66
e 32 43
e 32 53
e 32 60
e 32 65
e 33 52
e 33 63
e 33 70
e 33 71
e 34 36
e 34 40
e 34 49
e 34 55
e 34 60
e 34 61
e 34 62
e 34 69
e 34 71
e 35 42
e 35 53
e 35 55
e 35 57
e 35 78
e 36 37
e 36 38
e 36 43
e 36 45
e 36 51
e 37 54
e 37 57
e 37 58
e 37 66
e 38 41
e 38 59
e 38 74
e 38 78
e 39 41
e 39 58
e 39 64
e 39 68
e 40 44
e 40 46
e 40 53
e 40 67
e 40 78
e 41 42
e 41 47
e 41 62
e 41 65
e 41 66
e 41 73
e 41 79
e 42 52
e 42 61
e 42 67
e 42 70
e 42 73
e 43 55
e 43 56
e 43 62
e 43 65
e 43 73
e 44 46
e 44 49
e 44 54
e 44 67
e 44 70
e 44 72
e 44 79
e 45 51
e 45 72
e 46 53
e 47 60
e 47 61
e 47 75
e 48 51
e 48 55
e 48 56
e 48 64
e 48 65
e 48 77
e 48 79
e 49 62
e 49 77
e 50 52
e 50 56
e 50 65
e 50 66
e 51 54
e 51 55
e 51 65
e 51 79
e 52 72
e 52 73
e 52 76
e 53 65
e 53 66
e 53 67
e 53 79
e 54 55
e 54 65
e 54 70
e 54 73
e 55 66
e 55 75
e 56 61
e 56 71
e 56 75
e 57 59
e 57 70
e 58 74
e 58 79
e 59 63
e 59 76
e 59 79
e 59 80
e 60 61
e 60 75
e 61 79
e 62 64
e 62 67
e 62 80
e 63 65
e 63 70
e 64 68
e 64 73
e 64 74
e 64 77
e 65 69
e 65 75
e 66 75
e 67 72
e 71 80
e 72 78
e 72 80
e 73 74
